c generated by sgen
p cnf 77 164
-2 -3 -4 0
-1 -3 -4 0
-1 -2 -4 0
-1 -2 -3 0
-6 -7 -8 0
-5 -7 -8 0
-5 -6 -8 0
-5 -6 -7 0
-10 -11 -12 0
-9 -11 -12 0
-9 -10 -12 0
-9 -10 -11 0
-14 -15 -16 0
-13 -15 -16 0
-13 -14 -16 0
-13 -14 -15 0
-18 -19 -20 0
-17 -19 -20 0
-17 -18 -20 0
-17 -18 -19 0
-22 -23 -24 0
-21 -23 -24 0
-21 -22 -24 0
-21 -22 -23 0
-26 -27 -28 0
-25 -27 -28 0
-25 -26 -28 0
-25 -26 -27 0
-30 -31 -32 0
-29 -31 -32 0
-29 -30 -32 0
-29 -30 -31 0
-34 -35 -36 0
-33 -35 -36 0
-33 -34 -36 0
-33 -34 -35 0
-38 -39 -40 0
-37 -39 -40 0
-37 -38 -40 0
-37 -38 -39 0
-42 -43 -44 0
-41 -43 -44 0
-41 -42 -44 0
-41 -42 -43 0
-46 -47 -48 0
-45 -47 -48 0
-45 -46 -48 0
-45 -46 -47 0
-50 -51 -52 0
-49 -51 -52 0
-49 -50 -52 0
-49 -50 -51 0
-54 -55 -56 0
-53 -55 -56 0
-53 -54 -56 0
-53 -54 -55 0
-58 -59 -60 0
-57 -59 -60 0
-57 -58 -60 0
-57 -58 -59 0
-62 -63 -64 0
-61 -63 -64 0
-61 -62 -64 0
-61 -62 -63 0
-66 -67 -68 0
-65 -67 -68 0
-65 -66 -68 0
-65 -66 -67 0
-70 -71 -72 0
-69 -71 -72 0
-69 -70 -72 0
-69 -70 -71 0
-73 -74 -75 0
-73 -74 -76 0
-73 -74 -77 0
-73 -75 -76 0
-73 -75 -77 0
-73 -76 -77 0
-74 -75 -76 0
-74 -75 -77 0
-74 -76 -77 0
-75 -76 -77 0
54 18 8 0
9 18 8 0
9 54 8 0
9 54 18 0
67 61 36 0
12 61 36 0
12 67 36 0
12 67 61 0
43 25 20 0
49 25 20 0
49 43 20 0
49 43 25 0
29 46 34 0
27 46 34 0
27 29 34 0
27 29 46 0
57 31 70 0
15 31 70 0
15 57 70 0
15 57 31 0
71 42 10 0
76 42 10 0
76 71 10 0
76 71 42 0
30 44 3 0
64 44 3 0
64 30 3 0
64 30 44 0
26 77 14 0
58 77 14 0
58 26 14 0
58 26 77 0
73 56 45 0
62 56 45 0
62 73 45 0
62 73 56 0
63 5 28 0
40 5 28 0
40 63 28 0
40 63 5 0
17 35 22 0
1 35 22 0
1 17 22 0
1 17 35 0
50 53 72 0
33 53 72 0
33 50 72 0
33 50 53 0
74 52 4 0
6 52 4 0
6 74 4 0
6 74 52 0
37 59 55 0
21 59 55 0
21 37 55 0
21 37 59 0
69 23 7 0
47 23 7 0
47 69 7 0
47 69 23 0
2 16 38 0
11 16 38 0
11 2 38 0
11 2 16 0
41 24 13 0
66 24 13 0
66 41 13 0
66 41 24 0
68 51 60 0
48 51 60 0
48 68 60 0
48 68 51 0
39 19 75 0
39 19 65 0
39 19 32 0
39 75 65 0
39 75 32 0
39 65 32 0
19 75 65 0
19 75 32 0
19 65 32 0
75 65 32 0
